c Original instance: kbtree_wcnf.s-suppc_w9-s7-h3-d5/10/kbtree9_7_3_5_10_2.wcsp
c Format: Partial Max-SAT (wcnf)
c Encoding: [SEQUENTIAL] + Support (less SUM 2^#literals direction)
p wcnf 280 703 190                                                                
190 1 2 3 4 5 0
190 6 7 8 9 10 0
190 11 12 13 14 15 0
190 16 17 18 19 20 0
190 21 22 23 24 25 0
190 26 27 28 29 30 0
190 31 32 33 34 35 0
190 36 37 38 39 40 0
190 41 42 43 44 45 0
190 46 47 48 49 50 0
190 51 52 53 54 55 0
190 56 57 58 59 60 0
190 61 62 63 64 65 0
190 66 67 68 69 70 0
190 71 72 73 74 75 0
190 76 77 78 79 80 0
190 81 82 83 84 85 0
190 86 87 88 89 90 0
190 91 92 93 94 95 0
190 96 97 98 99 100 0
190 101 102 103 104 105 0
190 106 107 108 109 110 0
190 111 112 113 114 115 0
190 116 117 118 119 120 0
190 121 122 123 124 125 0
190 126 127 128 129 130 0
190 131 132 133 134 135 0
190 136 137 138 139 140 0
190 -1 -142 0
190 -2 142 0
190 -2 -143 0
190 -3 143 0
190 -3 -144 0
190 -4 144 0
190 -4 -145 0
190 -5 145 0
190 -6 -147 0
190 -7 147 0
190 -7 -148 0
190 -8 148 0
190 -8 -149 0
190 -9 149 0
190 -9 -150 0
190 -10 150 0
190 -11 -152 0
190 -12 152 0
190 -12 -153 0
190 -13 153 0
190 -13 -154 0
190 -14 154 0
190 -14 -155 0
190 -15 155 0
190 -16 -157 0
190 -17 157 0
190 -17 -158 0
190 -18 158 0
190 -18 -159 0
190 -19 159 0
190 -19 -160 0
190 -20 160 0
190 -21 -162 0
190 -22 162 0
190 -22 -163 0
190 -23 163 0
190 -23 -164 0
190 -24 164 0
190 -24 -165 0
190 -25 165 0
190 -26 -167 0
190 -27 167 0
190 -27 -168 0
190 -28 168 0
190 -28 -169 0
190 -29 169 0
190 -29 -170 0
190 -30 170 0
190 -31 -172 0
190 -32 172 0
190 -32 -173 0
190 -33 173 0
190 -33 -174 0
190 -34 174 0
190 -34 -175 0
190 -35 175 0
190 -36 -177 0
190 -37 177 0
190 -37 -178 0
190 -38 178 0
190 -38 -179 0
190 -39 179 0
190 -39 -180 0
190 -40 180 0
190 -41 -182 0
190 -42 182 0
190 -42 -183 0
190 -43 183 0
190 -43 -184 0
190 -44 184 0
190 -44 -185 0
190 -45 185 0
190 -46 -187 0
190 -47 187 0
190 -47 -188 0
190 -48 188 0
190 -48 -189 0
190 -49 189 0
190 -49 -190 0
190 -50 190 0
190 -51 -192 0
190 -52 192 0
190 -52 -193 0
190 -53 193 0
190 -53 -194 0
190 -54 194 0
190 -54 -195 0
190 -55 195 0
190 -56 -197 0
190 -57 197 0
190 -57 -198 0
190 -58 198 0
190 -58 -199 0
190 -59 199 0
190 -59 -200 0
190 -60 200 0
190 -61 -202 0
190 -62 202 0
190 -62 -203 0
190 -63 203 0
190 -63 -204 0
190 -64 204 0
190 -64 -205 0
190 -65 205 0
190 -66 -207 0
190 -67 207 0
190 -67 -208 0
190 -68 208 0
190 -68 -209 0
190 -69 209 0
190 -69 -210 0
190 -70 210 0
190 -71 -212 0
190 -72 212 0
190 -72 -213 0
190 -73 213 0
190 -73 -214 0
190 -74 214 0
190 -74 -215 0
190 -75 215 0
190 -76 -217 0
190 -77 217 0
190 -77 -218 0
190 -78 218 0
190 -78 -219 0
190 -79 219 0
190 -79 -220 0
190 -80 220 0
190 -81 -222 0
190 -82 222 0
190 -82 -223 0
190 -83 223 0
190 -83 -224 0
190 -84 224 0
190 -84 -225 0
190 -85 225 0
190 -86 -227 0
190 -87 227 0
190 -87 -228 0
190 -88 228 0
190 -88 -229 0
190 -89 229 0
190 -89 -230 0
190 -90 230 0
190 -91 -232 0
190 -92 232 0
190 -92 -233 0
190 -93 233 0
190 -93 -234 0
190 -94 234 0
190 -94 -235 0
190 -95 235 0
190 -96 -237 0
190 -97 237 0
190 -97 -238 0
190 -98 238 0
190 -98 -239 0
190 -99 239 0
190 -99 -240 0
190 -100 240 0
190 -101 -242 0
190 -102 242 0
190 -102 -243 0
190 -103 243 0
190 -103 -244 0
190 -104 244 0
190 -104 -245 0
190 -105 245 0
190 -106 -247 0
190 -107 247 0
190 -107 -248 0
190 -108 248 0
190 -108 -249 0
190 -109 249 0
190 -109 -250 0
190 -110 250 0
190 -111 -252 0
190 -112 252 0
190 -112 -253 0
190 -113 253 0
190 -113 -254 0
190 -114 254 0
190 -114 -255 0
190 -115 255 0
190 -116 -257 0
190 -117 257 0
190 -117 -258 0
190 -118 258 0
190 -118 -259 0
190 -119 259 0
190 -119 -260 0
190 -120 260 0
190 -121 -262 0
190 -122 262 0
190 -122 -263 0
190 -123 263 0
190 -123 -264 0
190 -124 264 0
190 -124 -265 0
190 -125 265 0
190 -126 -267 0
190 -127 267 0
190 -127 -268 0
190 -128 268 0
190 -128 -269 0
190 -129 269 0
190 -129 -270 0
190 -130 270 0
190 -131 -272 0
190 -132 272 0
190 -132 -273 0
190 -133 273 0
190 -133 -274 0
190 -134 274 0
190 -134 -275 0
190 -135 275 0
190 -136 -277 0
190 -137 277 0
190 -137 -278 0
190 -138 278 0
190 -138 -279 0
190 -139 279 0
190 -139 -280 0
190 -140 280 0
190 -142 141 0
190 -143 142 0
190 -144 143 0
190 -145 144 0
190 -147 146 0
190 -148 147 0
190 -149 148 0
190 -150 149 0
190 -152 151 0
190 -153 152 0
190 -154 153 0
190 -155 154 0
190 -157 156 0
190 -158 157 0
190 -159 158 0
190 -160 159 0
190 -162 161 0
190 -163 162 0
190 -164 163 0
190 -165 164 0
190 -167 166 0
190 -168 167 0
190 -169 168 0
190 -170 169 0
190 -172 171 0
190 -173 172 0
190 -174 173 0
190 -175 174 0
190 -177 176 0
190 -178 177 0
190 -179 178 0
190 -180 179 0
190 -182 181 0
190 -183 182 0
190 -184 183 0
190 -185 184 0
190 -187 186 0
190 -188 187 0
190 -189 188 0
190 -190 189 0
190 -192 191 0
190 -193 192 0
190 -194 193 0
190 -195 194 0
190 -197 196 0
190 -198 197 0
190 -199 198 0
190 -200 199 0
190 -202 201 0
190 -203 202 0
190 -204 203 0
190 -205 204 0
190 -207 206 0
190 -208 207 0
190 -209 208 0
190 -210 209 0
190 -212 211 0
190 -213 212 0
190 -214 213 0
190 -215 214 0
190 -217 216 0
190 -218 217 0
190 -219 218 0
190 -220 219 0
190 -222 221 0
190 -223 222 0
190 -224 223 0
190 -225 224 0
190 -227 226 0
190 -228 227 0
190 -229 228 0
190 -230 229 0
190 -232 231 0
190 -233 232 0
190 -234 233 0
190 -235 234 0
190 -237 236 0
190 -238 237 0
190 -239 238 0
190 -240 239 0
190 -242 241 0
190 -243 242 0
190 -244 243 0
190 -245 244 0
190 -247 246 0
190 -248 247 0
190 -249 248 0
190 -250 249 0
190 -252 251 0
190 -253 252 0
190 -254 253 0
190 -255 254 0
190 -257 256 0
190 -258 257 0
190 -259 258 0
190 -260 259 0
190 -262 261 0
190 -263 262 0
190 -264 263 0
190 -265 264 0
190 -267 266 0
190 -268 267 0
190 -269 268 0
190 -270 269 0
190 -272 271 0
190 -273 272 0
190 -274 273 0
190 -275 274 0
190 -277 276 0
190 -278 277 0
190 -279 278 0
190 -280 279 0
1 -127 106 107 109 110 0
1 -130 106 107 108 110 0
1 -126 101 103 104 105 0
1 -130 101 103 104 105 0
1 -78 11 13 14 15 0
1 -79 11 13 14 15 0
1 -132 96 98 99 100 0
1 -133 96 98 99 100 0
1 -56 11 12 13 15 0
1 -60 11 13 14 15 0
1 -16 11 13 15 0
1 -12 1 2 4 5 0
1 -14 1 2 4 5 0
1 -82 26 27 28 30 0
1 -85 26 27 28 30 0
1 -122 1 2 4 5 0
1 -123 1 2 3 5 0
1 -103 12 13 14 15 0
1 -105 12 13 14 15 0
1 -96 31 33 34 35 0
1 -100 32 33 34 35 0
1 -133 16 18 19 0
1 -123 36 37 38 40 0
1 -124 36 37 39 40 0
1 -8 2 3 4 5 0
1 -9 2 3 4 5 0
1 -71 66 68 69 70 0
1 -75 66 67 68 69 0
1 -111 46 47 48 49 0
1 -112 47 48 49 50 0
1 -76 71 72 73 74 0
1 -79 71 72 74 75 0
1 -36 21 22 23 25 0
1 -38 21 22 24 25 0
1 -79 66 67 69 70 0
1 -80 66 67 69 70 0
1 -87 31 32 34 35 0
1 -88 32 33 34 35 0
1 -92 56 57 59 60 0
1 -94 56 57 58 60 0
1 -119 112 113 115 0
1 -89 81 82 83 85 0
1 -90 81 83 84 85 0
1 -93 47 48 49 50 0
1 -95 46 48 49 50 0
1 -31 1 3 4 5 0
1 -32 1 2 3 4 0
1 -77 56 57 58 0
1 -41 22 23 24 25 0
1 -45 21 22 23 25 0
1 -51 46 47 49 50 0
1 -53 46 47 49 50 0
1 -61 51 52 53 55 0
1 -63 51 52 54 55 0
1 -56 46 48 49 50 0
1 -60 46 47 48 49 0
1 -122 21 23 24 25 0
1 -125 21 22 23 25 0
1 -53 21 22 23 24 0
1 -55 21 22 23 25 0
1 -18 6 7 8 10 0
1 -19 6 7 9 10 0
1 -79 46 47 48 50 0
1 -80 46 47 49 50 0
1 -61 26 27 28 30 0
1 -63 27 28 29 30 0
1 -74 21 24 25 0
1 -100 16 19 20 0
1 -51 31 32 33 35 0
1 -52 32 33 34 35 0
1 -41 36 37 38 39 0
1 -45 36 38 39 40 0
1 -108 31 33 34 35 0
1 -110 31 32 33 34 0
1 -86 11 12 14 15 0
1 -88 11 12 14 15 0
1 -87 46 47 48 50 0
1 -88 46 47 48 49 0
1 -96 37 38 39 40 0
1 -100 36 37 38 40 0
1 -116 36 38 39 40 0
1 -120 36 37 38 39 0
1 -62 56 57 58 59 0
1 -65 56 58 59 60 0
1 -66 11 12 13 15 0
1 -67 11 12 14 15 0
1 -84 11 12 13 15 0
1 -85 11 12 13 14 0
1 -117 21 22 24 25 0
1 -118 22 23 24 25 0
1 -114 106 107 108 109 0
1 -115 106 107 108 109 0
1 -133 101 103 104 105 0
1 -135 101 102 103 105 0
1 -26 1 2 3 5 0
1 -30 1 2 3 5 0
1 -31 17 18 19 20 0
1 -35 16 17 18 19 0
1 -47 26 27 28 29 0
1 -49 26 27 28 30 0
1 -98 12 13 14 15 0
1 -100 12 13 14 15 0
1 -61 21 22 24 25 0
1 -62 21 22 23 24 0
1 -51 11 13 14 15 0
1 -54 11 12 13 15 0
1 -131 128 129 130 0
1 -23 6 7 8 9 0
1 -25 6 7 9 10 0
1 -32 22 23 24 25 0
1 -34 21 22 23 25 0
1 -57 21 22 23 24 0
1 -60 21 22 23 25 0
1 -126 31 32 33 35 0
1 -130 32 33 34 35 0
1 -42 31 32 34 35 0
1 -45 32 33 34 35 0
1 -62 6 7 9 0
1 -85 46 47 48 0
1 -28 16 17 20 0
1 -114 3 4 5 0
1 -98 2 3 4 5 0
1 -99 1 2 3 4 0
1 -62 36 38 39 40 0
1 -65 36 38 39 40 0
1 -131 107 108 109 0
1 -42 1 2 4 5 0
1 -45 1 2 4 5 0
1 -101 97 98 99 100 0
1 -104 97 98 99 100 0
1 -68 36 37 38 40 0
1 -70 36 37 38 39 0
1 -102 16 17 19 20 0
1 -103 16 17 18 20 0
1 -82 21 22 23 24 0
1 -84 22 23 24 25 0
1 -131 31 33 34 35 0
1 -135 31 32 33 35 0
1 -28 11 12 14 15 0
1 -29 11 12 13 15 0
1 -58 31 33 34 35 0
1 -59 32 33 34 35 0
1 -116 101 102 103 0
1 -22 1 2 3 4 0
1 -25 2 3 4 5 0
1 -68 46 47 48 49 0
1 -69 46 47 48 49 0
1 -96 21 23 24 25 0
1 -97 21 22 23 24 0
1 -67 26 28 29 0
1 -24 18 19 20 0
1 -36 26 27 29 30 0
1 -38 26 27 29 30 0
1 -31 26 27 29 0
1 -46 2 3 4 0
1 -131 36 37 38 40 0
1 -134 36 37 39 40 0
1 -37 7 8 9 10 0
1 -39 6 7 8 10 0
1 -106 101 102 104 105 0
1 -108 102 103 104 105 0
1 -113 21 22 23 25 0
1 -115 22 23 24 25 0
1 -117 1 2 3 5 0
1 -118 1 2 4 5 0
1 -53 36 37 38 39 0
1 -54 36 37 38 40 0
1 -88 26 27 28 29 0
1 -89 26 27 28 29 0
1 -109 47 48 49 50 0
1 -110 46 47 49 50 0
1 -24 12 13 14 15 0
1 -25 11 13 14 15 0
1 -27 6 7 8 9 0
1 -28 6 8 9 10 0
1 -107 16 17 18 20 0
1 -110 16 17 18 20 0
1 -91 82 83 84 85 0
1 -95 81 83 84 85 0
1 -68 6 8 9 0
1 -137 107 108 109 110 0
1 -138 107 108 109 110 0
1 -38 31 32 34 35 0
1 -40 32 33 34 35 0
1 -128 37 38 39 40 0
1 -130 36 38 39 40 0
1 -56 26 27 30 0
1 -118 46 48 49 50 0
1 -120 47 48 49 50 0
1 -121 117 118 119 120 0
1 -124 117 118 119 120 0
1 -112 36 39 40 0
1 -81 57 58 59 60 0
1 -85 57 58 59 60 0
1 -78 37 38 39 0
1 -136 31 32 33 0
1 -124 46 47 49 50 0
1 -125 46 48 49 50 0
1 -56 37 38 39 40 0
1 -60 37 38 39 40 0
1 -46 17 18 19 20 0
1 -47 17 18 19 20 0
1 -117 107 108 109 110 0
1 -120 107 108 109 110 0
1 -43 27 29 30 0
1 -73 57 58 59 60 0
1 -75 56 57 58 59 0
1 -86 61 63 64 65 0
1 -88 62 63 64 65 0
1 -128 97 98 99 0
1 -102 2 3 4 5 0
1 -103 1 2 4 5 0
1 -137 16 17 19 20 0
1 -138 16 17 18 19 0
1 -107 1 3 4 5 0
1 -108 1 3 4 5 0
1 -83 31 32 34 35 0
1 -85 31 32 33 35 0
1 -119 16 17 18 19 0
1 -120 16 18 19 20 0
1 -62 31 32 33 35 0
1 -64 31 33 34 35 0
1 -36 16 17 19 20 0
1 -37 16 17 18 19 0
1 -48 37 38 39 40 0
1 -50 36 37 38 40 0
1 -78 26 27 29 30 0
1 -79 26 27 28 29 0
1 -121 111 112 113 115 0
1 -125 111 112 113 114 0
1 -71 37 38 39 40 0
1 -75 37 38 39 40 0
1 -106 97 98 99 0
1 -101 31 32 33 34 0
1 -102 31 33 34 35 0
1 -73 11 12 14 0
1 -14 6 7 8 9 0
1 -15 7 8 9 10 0
1 -77 21 22 24 25 0
1 -80 22 23 24 25 0
1 -62 11 12 13 14 0
1 -64 11 12 14 15 0
1 -139 132 133 134 135 0
1 -140 131 133 134 135 0
1 -91 11 14 15 0
1 -95 86 87 89 0
1 -88 56 57 58 60 0
1 -90 56 57 58 59 0
1 -101 36 37 38 40 0
1 -103 36 37 38 39 0
1 -28 22 23 25 0
1 -126 12 13 14 15 0
1 -129 11 12 13 14 0
1 -111 16 17 19 20 0
1 -113 16 17 18 19 0
1 -49 6 7 8 9 0
1 -50 7 8 9 10 0
1 -91 26 28 29 30 0
1 -95 26 28 29 30 0
1 -122 16 17 18 20 0
1 -125 16 17 18 19 0
1 -45 16 17 20 0
1 -77 7 9 10 0
1 -34 6 8 9 10 0
1 -35 6 7 9 10 0
1 -71 46 47 48 50 0
1 -73 46 47 48 49 0
1 -127 16 18 19 20 0
1 -129 17 18 19 20 0
1 -52 6 7 8 10 0
1 -53 6 7 8 9 0
1 -136 102 103 104 105 0
1 -139 102 103 104 105 0
1 -44 7 8 9 10 0
1 -45 6 7 8 9 0
1 -138 126 128 129 130 0
1 -139 126 128 129 130 0
1 -16 2 3 4 5 0
1 -19 2 3 4 5 0
1 -139 36 37 38 39 0
1 -140 36 37 38 40 0
1 -74 7 8 9 0
1 -67 56 57 59 60 0
1 -68 56 58 59 60 0
1 -48 31 33 35 0
1 -56 6 7 9 10 0
1 -60 6 7 9 10 0
1 -58 51 52 55 0
1 -108 37 38 39 40 0
1 -109 36 37 39 40 0
1 -43 11 12 13 14 0
1 -45 11 13 14 15 0
1 -92 61 64 65 0
1 -66 21 22 23 25 0
1 -68 22 23 24 25 0
1 -114 101 102 103 105 0
1 -115 101 102 103 105 0
1 -108 11 12 14 15 0
1 -110 11 12 13 15 0
1 -122 106 107 108 109 0
1 -125 106 107 108 110 0
1 -38 1 2 3 4 0
1 -39 2 3 4 5 0
1 -31 12 13 14 15 0
1 -33 12 13 14 15 0
1 -47 11 13 14 15 0
1 -49 11 13 14 15 0
1 -106 21 22 24 25 0
1 -110 21 22 24 25 0
1 -47 41 42 43 45 0
1 -48 42 43 44 45 0
1 -82 63 64 65 0
1 -48 23 24 25 0
1 -137 13 14 15 0
1 -96 46 47 49 50 0
1 -99 47 48 49 50 0
1 -136 96 97 98 99 0
1 -138 96 97 99 100 0
1 -101 21 23 24 25 0
1 -105 21 23 24 25 0
1 -92 31 32 33 35 0
1 -94 31 32 33 34 0
1 -72 26 28 29 30 0
1 -74 26 27 28 30 0
1 -103 46 47 48 50 0
1 -105 46 47 48 50 0
1 -88 21 22 23 24 0
1 -90 21 22 23 25 0
1 -95 22 24 25 0
1 -123 101 102 104 105 0
1 -124 102 103 104 105 0
1 -51 26 28 29 30 0
1 -54 26 27 28 29 0
1 -134 12 13 14 15 0
1 -135 11 12 13 15 0
1 -38 11 12 14 15 0
1 -39 11 13 14 15 0
1 -63 46 47 48 49 0
1 -65 47 48 49 50 0
